Minimize
  obj: 0
Subject To
 
\ Row assignment constraints
+ x0x0 + x0x1 + x0x2 + x0x3 + x0x4 + x0x5 + x0x6 + x0x7 + x0x8 + x0x9 = 1
+ x1x0 + x1x1 + x1x2 + x1x3 + x1x4 + x1x5 + x1x6 + x1x7 + x1x8 + x1x9 = 1
+ x2x0 + x2x1 + x2x2 + x2x3 + x2x4 + x2x5 + x2x6 + x2x7 + x2x8 + x2x9 = 1
+ x3x0 + x3x1 + x3x2 + x3x3 + x3x4 + x3x5 + x3x6 + x3x7 + x3x8 + x3x9 = 1
+ x4x0 + x4x1 + x4x2 + x4x3 + x4x4 + x4x5 + x4x6 + x4x7 + x4x8 + x4x9 = 1
+ x5x0 + x5x1 + x5x2 + x5x3 + x5x4 + x5x5 + x5x6 + x5x7 + x5x8 + x5x9 = 1
+ x6x0 + x6x1 + x6x2 + x6x3 + x6x4 + x6x5 + x6x6 + x6x7 + x6x8 + x6x9 = 1
+ x7x0 + x7x1 + x7x2 + x7x3 + x7x4 + x7x5 + x7x6 + x7x7 + x7x8 + x7x9 = 1
+ x8x0 + x8x1 + x8x2 + x8x3 + x8x4 + x8x5 + x8x6 + x8x7 + x8x8 + x8x9 = 1
+ x9x0 + x9x1 + x9x2 + x9x3 + x9x4 + x9x5 + x9x6 + x9x7 + x9x8 + x9x9 = 1
 
\ Column assignment constraints
+ x0x0 + x1x0 + x2x0 + x3x0 + x4x0 + x5x0 + x6x0 + x7x0 + x8x0 + x9x0 = 1
+ x0x1 + x1x1 + x2x1 + x3x1 + x4x1 + x5x1 + x6x1 + x7x1 + x8x1 + x9x1 = 1
+ x0x2 + x1x2 + x2x2 + x3x2 + x4x2 + x5x2 + x6x2 + x7x2 + x8x2 + x9x2 = 1
+ x0x3 + x1x3 + x2x3 + x3x3 + x4x3 + x5x3 + x6x3 + x7x3 + x8x3 + x9x3 = 1
+ x0x4 + x1x4 + x2x4 + x3x4 + x4x4 + x5x4 + x6x4 + x7x4 + x8x4 + x9x4 = 1
+ x0x5 + x1x5 + x2x5 + x3x5 + x4x5 + x5x5 + x6x5 + x7x5 + x8x5 + x9x5 = 1
+ x0x6 + x1x6 + x2x6 + x3x6 + x4x6 + x5x6 + x6x6 + x7x6 + x8x6 + x9x6 = 1
+ x0x7 + x1x7 + x2x7 + x3x7 + x4x7 + x5x7 + x6x7 + x7x7 + x8x7 + x9x7 = 1
+ x0x8 + x1x8 + x2x8 + x3x8 + x4x8 + x5x8 + x6x8 + x7x8 + x8x8 + x9x8 = 1
+ x0x9 + x1x9 + x2x9 + x3x9 + x4x9 + x5x9 + x6x9 + x7x9 + x8x9 + x9x9 = 1
 
\multiple objectives
 + 12 x0x0 + 13 x0x1 + 11 x0x2 +  4 x0x3 + 17 x0x4 +  4 x0x5 + 12 x0x6 +  9 x0x7 +  1 x0x8 +  7 x0x9 +  2 x1x0 +  2 x1x1 + 20 x1x2 + 20 x1x3 + 18 x1x4 +  2 x1x5 +  6 x1x6 +  2 x1x7 + 18 x1x8 + 12 x1x9 + 14 x2x0 + 20 x2x1 + 20 x2x2 +  3 x2x3 +  5 x2x4 +  5 x2x5 +  1 x2x6 + 18 x2x7 +  7 x2x8 + 11 x2x9 + 12 x3x0 + 18 x3x1 +  3 x3x2 +  2 x3x3 +  2 x3x4 + 20 x3x5 +  5 x3x6 + 14 x3x7 +  8 x3x8 +  6 x3x9 + 20 x4x0 +  9 x4x1 +  8 x4x2 + 20 x4x3 +  9 x4x4 +  5 x4x5 +  1 x4x6 + 14 x4x7 +  7 x4x8 + 18 x4x9 +  6 x5x0 + 20 x5x1 + 18 x5x2 +  5 x5x3 +  3 x5x4 +  2 x5x5 +  9 x5x6 +  3 x5x7 + 20 x5x8 + 16 x5x9 + 14 x6x0 + 11 x6x1 + 14 x6x2 + 17 x6x3 + 12 x6x4 + 15 x6x5 + 16 x6x6 + 17 x6x7 +  9 x6x8 +  4 x6x9 +  2 x7x0 +  8 x7x1 + 13 x7x2 + 10 x7x3 +  7 x7x4 +  1 x7x5 + 14 x7x6 +  7 x7x7 + 15 x7x8 +  1 x7x9 +  5 x8x0 + 20 x8x1 + 20 x8x2 +  3 x8x3 +  5 x8x4 +  3 x8x5 +  4 x8x6 + 13 x8x7 +  5 x8x8 +  4 x8x9 +  9 x9x0 + 19 x9x1 + 14 x9x2 +  2 x9x3 + 15 x9x4 +  6 x9x5 + 17 x9x6 + 11 x9x7 +  2 x9x8 +  5 x9x9 < 1
 + 14 x0x0 +  4 x0x1 + 12 x0x2 +  7 x0x3 + 13 x0x4 + 19 x0x5 +  7 x0x6 +  7 x0x7 +  6 x0x8 +  2 x0x9 +  7 x1x0 + 11 x1x1 +  2 x1x2 +  7 x1x3 + 13 x1x4 +  6 x1x5 +  9 x1x6 + 16 x1x7 + 19 x1x8 + 14 x1x9 + 20 x2x0 +  7 x2x1 + 12 x2x2 + 13 x2x3 +  9 x2x4 +  7 x2x5 + 18 x2x6 +  5 x2x7 + 17 x2x8 + 20 x2x9 +  9 x3x0 + 11 x3x1 +  4 x3x2 +  1 x3x3 + 17 x3x4 + 16 x3x5 + 20 x3x6 +  4 x3x7 +  3 x3x8 +  5 x3x9 +  6 x4x0 +  9 x4x1 + 15 x4x2 +  7 x4x3 + 15 x4x4 +  7 x4x5 + 13 x4x6 +  4 x4x7 +  3 x4x8 + 12 x4x9 + 17 x5x0 +  2 x5x1 + 19 x5x2 +  9 x5x3 + 15 x5x4 +  7 x5x5 + 15 x5x6 + 13 x5x7 + 11 x5x8 + 12 x5x9 + 12 x6x0 + 20 x6x1 +  3 x6x2 + 16 x6x3 + 20 x6x4 + 20 x6x5 + 12 x6x6 + 19 x6x7 +  4 x6x8 + 14 x6x9 +  4 x7x0 +  9 x7x1 +  3 x7x2 + 18 x7x3 + 16 x7x4 + 18 x7x5 +  5 x7x6 +  9 x7x7 +  1 x7x8 +  8 x7x9 + 20 x8x0 + 18 x8x1 +  9 x8x2 + 18 x8x3 +  6 x8x4 +  4 x8x5 +  5 x8x6 +  1 x8x7 + 16 x8x8 + 15 x8x9 + 13 x9x0 +  8 x9x1 + 15 x9x2 + 16 x9x3 +  3 x9x4 + 15 x9x5 + 16 x9x6 + 14 x9x7 + 14 x9x8 + 19 x9x9 < 2
 +  8 x0x0 + 17 x0x1 +  8 x0x2 + 10 x0x3 + 15 x0x4 +  4 x0x5 +  8 x0x6 + 19 x0x7 + 12 x0x8 +  8 x0x9 +  6 x1x0 + 12 x1x1 +  6 x1x2 + 15 x1x3 + 10 x1x4 + 12 x1x5 + 19 x1x6 + 14 x1x7 + 12 x1x8 + 14 x1x9 +  9 x2x0 +  5 x2x1 +  2 x2x2 +  3 x2x3 +  1 x2x4 +  4 x2x5 + 18 x2x6 + 16 x2x7 + 18 x2x8 + 11 x2x9 + 14 x3x0 +  6 x3x1 +  7 x3x2 +  2 x3x3 + 15 x3x4 +  1 x3x5 +  5 x3x6 +  2 x3x7 + 20 x3x8 + 17 x3x9 + 10 x4x0 +  6 x4x1 +  8 x4x2 + 15 x4x3 +  1 x4x4 + 18 x4x5 +  6 x4x6 + 19 x4x7 + 12 x4x8 + 18 x4x9 + 13 x5x0 + 20 x5x1 +  3 x5x2 + 14 x5x3 +  3 x5x4 +  3 x5x5 + 17 x5x6 + 20 x5x7 + 18 x5x8 + 15 x5x9 + 10 x6x0 + 12 x6x1 + 20 x6x2 + 17 x6x3 + 13 x6x4 + 15 x6x5 + 18 x6x6 + 17 x6x7 + 17 x6x8 + 18 x6x9 + 13 x7x0 +  7 x7x1 +  3 x7x2 +  1 x7x3 +  2 x7x4 +  4 x7x5 + 18 x7x6 +  7 x7x7 +  2 x7x8 +  9 x7x9 +  5 x8x0 + 14 x8x1 +  9 x8x2 +  7 x8x3 +  7 x8x4 + 12 x8x5 + 10 x8x6 +  4 x8x7 + 12 x8x8 +  7 x8x9 + 19 x9x0 +  2 x9x1 + 19 x9x2 + 19 x9x3 + 18 x9x4 + 11 x9x5 + 14 x9x6 + 16 x9x7 +  7 x9x8 + 10 x9x9 < 3

BINARY
x0x0
x0x1
x0x2
x0x3
x0x4
x0x5
x0x6
x0x7
x0x8
x0x9
x1x0
x1x1
x1x2
x1x3
x1x4
x1x5
x1x6
x1x7
x1x8
x1x9
x2x0
x2x1
x2x2
x2x3
x2x4
x2x5
x2x6
x2x7
x2x8
x2x9
x3x0
x3x1
x3x2
x3x3
x3x4
x3x5
x3x6
x3x7
x3x8
x3x9
x4x0
x4x1
x4x2
x4x3
x4x4
x4x5
x4x6
x4x7
x4x8
x4x9
x5x0
x5x1
x5x2
x5x3
x5x4
x5x5
x5x6
x5x7
x5x8
x5x9
x6x0
x6x1
x6x2
x6x3
x6x4
x6x5
x6x6
x6x7
x6x8
x6x9
x7x0
x7x1
x7x2
x7x3
x7x4
x7x5
x7x6
x7x7
x7x8
x7x9
x8x0
x8x1
x8x2
x8x3
x8x4
x8x5
x8x6
x8x7
x8x8
x8x9
x9x0
x9x1
x9x2
x9x3
x9x4
x9x5
x9x6
x9x7
x9x8
x9x9
End
